Read MPS format model from file dat/rmp/DER_24_1024_43.mps
Reading time = 0.05 seconds
: 1048 rows, 6493 columns, 146136 nonzeros
Gurobi Optimizer version 9.0.0 build v9.0.0rc2 (linux64)
Optimize a model with 1048 rows, 6493 columns and 146136 nonzeros
Model fingerprint: 0xd3758003
Coefficient statistics:
  Matrix range     [2e-03, 1e+01]
  Objective range  [2e-01, 1e+03]
  Bounds range     [6e+03, 6e+03]
  RHS range        [1e+00, 1e+00]
Ordering time: 0.00s

Barrier statistics:
 AA' NZ     : 2.370e+04
 Factor NZ  : 3.321e+04 (roughly 3 MBytes of memory)
 Factor Ops : 1.153e+06 (less than 1 second per iteration)
 Threads    : 1

                  Objective                Residual
Iter       Primal          Dual         Primal    Dual     Compl     Time
   0   1.03574245e+08 -1.18341468e+07  5.31e+05 1.56e-02  1.69e+05     0s
   1   4.08835018e+06 -2.83549518e+06  1.91e+04 3.64e-12  6.51e+03     0s
   2   1.45536416e+05 -1.49373968e+06  6.60e+02 3.64e-12  4.31e+02     0s
   3   1.83535150e+03 -2.75478819e+05  2.54e-12 3.64e-12  4.26e+01     0s
   4   1.51557207e+03  1.05764424e+03  3.70e-12 3.64e-12  7.03e-02     0s
   5   1.49820819e+03  1.35735760e+03  3.55e-12 3.64e-12  2.16e-02     0s
   6   1.48700189e+03  1.45544018e+03  5.68e-12 5.46e-12  4.84e-03     0s
   7   1.48076788e+03  1.46826316e+03  4.31e-12 1.82e-12  1.92e-03     0s
   8   1.47615187e+03  1.47298385e+03  6.24e-12 3.64e-12  4.86e-04     0s
   9   1.47486359e+03  1.47381888e+03  1.84e-11 1.82e-12  1.60e-04     0s
  10   1.47446609e+03  1.47426211e+03  1.61e-11 1.82e-12  3.13e-05     0s
  11   1.47441517e+03  1.47430342e+03  3.72e-11 1.82e-12  1.71e-05     0s
  12   1.47439535e+03  1.47433816e+03  3.57e-11 3.64e-12  8.78e-06     0s
  13   1.47437935e+03  1.47435256e+03  6.99e-11 1.82e-12  4.11e-06     0s
  14   1.47437503e+03  1.47435730e+03  8.87e-11 3.64e-12  2.72e-06     0s
  15   1.47437304e+03  1.47435897e+03  5.57e-11 1.82e-12  2.16e-06     0s
  16   1.47437045e+03  1.47436015e+03  4.58e-11 1.82e-12  1.58e-06     0s
  17   1.47436970e+03  1.47436179e+03  3.75e-11 1.82e-12  1.21e-06     0s
  18   1.47436838e+03  1.47436237e+03  3.92e-11 1.82e-12  9.23e-07     0s
  19   1.47436798e+03  1.47436300e+03  4.34e-11 1.82e-12  7.64e-07     0s
  20   1.47436733e+03  1.47436334e+03  8.34e-11 1.82e-12  6.12e-07     0s
  21   1.47436654e+03  1.47436360e+03  2.17e-10 1.82e-12  4.51e-07     0s
  22   1.47436624e+03  1.47436396e+03  2.00e-10 3.64e-12  3.49e-07     0s
  23   1.47436565e+03  1.47436456e+03  1.19e-09 1.82e-12  1.67e-07     0s
  24   1.47436534e+03  1.47436471e+03  5.71e-10 1.82e-12  9.69e-08     0s
  25   1.47436499e+03  1.47436492e+03  1.27e-08 3.64e-12  9.68e-09     0s
  26   1.47436497e+03  1.47436496e+03  1.31e-08 3.64e-12  2.33e-09     0s
  27   1.47436496e+03  1.47436496e+03  2.61e-08 3.64e-12  1.46e-10     0s

Barrier solved model in 27 iterations and 0.17 seconds
Optimal objective 1.47436496e+03

Solve time: 0.166912973
Barrier iterations: 27
